
Welcome to IBM(R) ILOG(R) CPLEX(R) Interactive Optimizer 22.1.1.0
  with Simplex, Mixed Integer & Barrier Optimizers
5725-A06 5725-A29 5724-Y48 5724-Y49 5724-Y54 5724-Y55 5655-Y21
Copyright IBM Corp. 1988, 2022.  All Rights Reserved.

Type 'help' for a list of available commands.
Type 'help' followed by a command name for more
information on commands.

CPLEX> Selected objective sense:  MINIMIZE
Selected objective  name:  00000000
Selected RHS        name:  RHS1
Selected bound      name:  BOUND
Problem 'ee.mps' read.
Read time = 0.03 sec. (3.14 ticks)
CPLEX> New value for time limit in seconds: 7200
CPLEX> New value for parallel optimization mode: -1
CPLEX> New value for default parallel thread count: 40
CPLEX> New value for mixed integer optimality gap tolerance: 1e-13
CPLEX> Version identifier: 22.1.1.0 | 2022-11-28 | 9160aff4d
CPXPARAM_Threads                                 40
CPXPARAM_Parallel                                -1
CPXPARAM_TimeLimit                               7200
CPXPARAM_MIP_Tolerances_MIPGap                   1e-13
Found incumbent of value 0.000000 after 0.00 sec. (0.31 ticks)
Tried aggregator 2 times.
MIP Presolve eliminated 183 rows and 2745 columns.
MIP Presolve modified 5862 coefficients.
Aggregator did 713 substitutions.
Reduced MIP has 3624 rows, 7744 columns, and 28667 nonzeros.
Reduced MIP has 7744 binaries, 0 generals, 0 SOSs, and 0 indicators.
Presolve time = 0.07 sec. (68.81 ticks)
Probing time = 0.03 sec. (5.30 ticks)
Tried aggregator 1 time.
Detecting symmetries...
Reduced MIP has 3624 rows, 7744 columns, and 28667 nonzeros.
Reduced MIP has 7744 binaries, 0 generals, 0 SOSs, and 0 indicators.
Presolve time = 0.03 sec. (21.94 ticks)
Probing time = 0.02 sec. (5.09 ticks)
Clique table members: 18558.
MIP emphasis: balance optimality and feasibility.
MIP search method: dynamic search.
Parallel mode: opportunistic, using up to 40 threads.
Root relaxation solution time = 0.20 sec. (166.80 ticks)

        Nodes                                         Cuts/
   Node  Left     Objective  IInf  Best Integer    Best Bound    ItCnt     Gap

*     0+    0                            0.0000  -1.31000e+13              --- 
*     0+    0                      -5.50000e+12  -1.31000e+13           138.18%
      0     0  -1.30900e+13   126  -5.50000e+12  -1.30900e+13     3276  138.00%
*     0+    0                      -1.21000e+13  -1.30900e+13             8.18%
*     0+    0                      -1.30900e+13  -1.30900e+13             0.00%
      0     0  -1.30900e+13   162  -1.30900e+13     Cuts: 151     3535    0.00%
*     0+    0                      -1.30900e+13  -1.30900e+13             0.00%
      0     0  -1.30900e+13   182  -1.30900e+13      Cuts: 59     3725    0.00%
*     0+    0                      -1.30900e+13  -1.30900e+13             0.00%
*     0+    0                      -1.30900e+13  -1.30900e+13             0.00%
*     0+    0                      -1.30900e+13  -1.30900e+13             0.00%
      0    23        cutoff        -1.30900e+13  -1.30900e+13    12673    0.00%
Elapsed time = 3.01 sec. (1714.34 ticks, tree = 0.02 MB, solutions = 8)
*    49+   22                      -1.30900e+13  -1.30900e+13             0.00%
     86    23  -1.30900e+13   111  -1.30900e+13  -1.30900e+13    10093    0.00%
    262    87  -1.30900e+13    72  -1.30900e+13  -1.30900e+13    78080    0.00%
    530    99  -1.30900e+13   198  -1.30900e+13  -1.30900e+13    96104    0.00%
    765   194        cutoff        -1.30900e+13  -1.30900e+13   165547    0.00%
   1124   196    infeasible        -1.30900e+13  -1.30900e+13   167600    0.00%
   1485   218  -1.30900e+13   239  -1.30900e+13  -1.30900e+13   190563    0.00%
   1920   282  -1.30900e+13   178  -1.30900e+13  -1.30900e+13   247053    0.00%
   2354   307  -1.30900e+13   150  -1.30900e+13  -1.30900e+13   268125    0.00%
   2696   535  -1.30900e+13   272  -1.30900e+13  -1.30900e+13   451549    0.00%
   4003   652        cutoff        -1.30900e+13  -1.30900e+13   547649    0.00%
Elapsed time = 8.81 sec. (4820.95 ticks, tree = 1.66 MB, solutions = 9)
   4796   883  -1.30900e+13   124  -1.30900e+13  -1.30900e+13   843362    0.00%
   5594   984  -1.30900e+13   180  -1.30900e+13  -1.30900e+13   963677    0.00%
   6466  1055  -1.30900e+13   136  -1.30900e+13  -1.30900e+13  1032505    0.00%
   7334  1183  -1.30900e+13   145  -1.30900e+13  -1.30900e+13  1233219    0.00%
   8324  1265  -1.30900e+13   231  -1.30900e+13  -1.30900e+13  1333464    0.00%
   9364  2534        cutoff        -1.30900e+13  -1.30900e+13  2293501    0.00%
  10386  1806  -1.30900e+13   165  -1.30900e+13  -1.30900e+13  1725838    0.00%
  11170  2026        cutoff        -1.30900e+13  -1.30900e+13  1870126    0.00%
  11966  2167  -1.30900e+13   145  -1.30900e+13  -1.30900e+13  1948691    0.00%
  12615  2399  -1.30900e+13   229  -1.30900e+13  -1.30900e+13  2146149    0.00%
Elapsed time = 22.75 sec. (14369.25 ticks, tree = 7.69 MB, solutions = 9)
  13119  2598  -1.30900e+13   168  -1.30900e+13  -1.30900e+13  2348268    0.00%
  13466  2675        cutoff        -1.30900e+13  -1.30900e+13  2487816    0.00%

Performing restart 1

Repeating presolve.
Tried aggregator 2 times.
MIP Presolve eliminated 492 rows and 1736 columns.
MIP Presolve modified 1853 coefficients.
Aggregator did 475 substitutions.
Reduced MIP has 2615 rows, 5459 columns, and 20037 nonzeros.
Reduced MIP has 5459 binaries, 0 generals, 0 SOSs, and 0 indicators.
Presolve time = 0.06 sec. (52.21 ticks)
Tried aggregator 1 time.
MIP Presolve eliminated 32 rows and 37 columns.
Reduced MIP has 2583 rows, 5415 columns, and 19904 nonzeros.
Reduced MIP has 5415 binaries, 0 generals, 0 SOSs, and 0 indicators.
Presolve time = 0.03 sec. (22.89 ticks)
Represolve time = 0.20 sec. (126.93 ticks)
  13525     0  -1.30900e+13   266  -1.30900e+13      Cuts: 37  3060024    0.00%
  13525     0  -1.30900e+13   269  -1.30900e+13      Cuts: 10  3060136    0.00%
  13525     0  -1.30900e+13   321  -1.30900e+13      Cuts: 18  3060689    0.00%
  13525     0  -1.30900e+13   272  -1.30900e+13     Cuts: 114  3060955    0.00%
  13525     0  -1.30900e+13   270  -1.30900e+13      Cuts: 64  3061191    0.00%
  13525     0  -1.30900e+13   287  -1.30900e+13      Cuts: 38  3061406    0.00%
  13525     0  -1.30900e+13   285  -1.30900e+13      Cuts: 20  3061503    0.00%
  13525     0  -1.30900e+13   276  -1.30900e+13      Cuts: 34  3061588    0.00%
  13525     0  -1.30900e+13   289  -1.30900e+13      Cuts: 29  3061747    0.00%
  13525     0  -1.30900e+13   321  -1.30900e+13      Cuts: 18  3061784    0.00%
  13525     0  -1.30900e+13   383  -1.30900e+13      Cuts: 18  3061846    0.00%
  13525     0  -1.30900e+13   374  -1.30900e+13      Cuts: 17  3061908    0.00%
  13525     0  -1.30900e+13   384  -1.30900e+13      Cuts: 22  3061970    0.00%
  13525     7    infeasible        -1.30900e+13  -1.30900e+13  3071281    0.00%
  13610     7  -1.30900e+13   161  -1.30900e+13  -1.30900e+13  3071928    0.00%

GUB cover cuts applied:  2
Clique cuts applied:  19
Cover cuts applied:  233
Flow cuts applied:  4
Mixed integer rounding cuts applied:  7
Zero-half cuts applied:  51
Lift and project cuts applied:  5
Gomory fractional cuts applied:  19

Root node processing (before b&c):
  Real time             =    1.74 sec. (1700.35 ticks)
Parallel b&c, 40 threads:
  Real time             =   27.77 sec. (19560.55 ticks)
  Sync time (average)   =    2.66 sec.
  Wait time (average)   =    0.11 sec.
                          ------------
Total (root+branch&cut) =   29.51 sec. (21260.91 ticks)

Solution pool: 9 solutions saved.

MIP - Integer optimal solution:  Objective = -1.3089998590e+13
Solution time =   29.66 sec.  Iterations = 3085997  Nodes = 13613
Deterministic time = 21260.94 ticks  (716.82 ticks/sec)

CPLEX> Solution 'p10' written to file 'ee.sol'.
CPLEX> 